c WARNING: for repeatability, setting FPU to use double precision
d VARIABLES            226086       
d CONSTRAINTS          838272       
c ============================[ Problem Statistics ]=============================
c |                                                                             |
c |  Number of variables:        226086                                         |
c |  Number of clauses:          838272                                         |
c |  Parse time:                   0.15 s                                       |
c |                                                                             |
c ============================[ Search Statistics ]==============================
c | Conflicts |          ORIGINAL         |          LEARNT          | Progress |
c |           |    Vars  Clauses Literals |    Limit  Clauses Lit/Cl |          |
c ===============================================================================
c |       100 |  187451   738642  1852121 |   270835      100     13 | 17.089 % |
c |       250 |  187451   738642  1852121 |   297918      250     15 | 17.089 % |
c |       475 |  187451   738642  1852121 |   327710      475     21 | 17.089 % |
c |       812 |  187451   738642  1852121 |   360481      812     18 | 17.089 % |
c |      1318 |  187451   738642  1852121 |   396530     1318     28 | 17.089 % |
c |      2077 |  187451   738642  1852121 |   436183     2077     28 | 17.089 % |
c |      3216 |  187451   738642  1852121 |   479801     3216     38 | 17.089 % |
c |      4924 |  187451   738642  1852121 |   527781     4924     41 | 17.089 % |
c |      7486 |  187451   738642  1852121 |   580559     7486     50 | 17.089 % |
c |     11330 |  187451   738642  1852121 |   638615    11330     53 | 17.089 % |
c |     17096 |  187451   738642  1852121 |   702477    17096     60 | 17.089 % |
c |     25745 |  187451   738642  1852121 |   772725    25745     57 | 17.089 % |
c |     38719 |  187451   738642  1852121 |   849997    38719     54 | 17.089 % |
c |     58180 |  187451   738642  1852121 |   934997    58180     52 | 17.089 % |
c |     87372 |  187451   738642  1852121 |  1028496    87372     53 | 17.089 % |
c |    131161 |  187365   738298  1851261 |  1131346    86556     46 | 17.127 % |
c ===============================================================================
c restarts              : 381
c conflicts             : 139313         (3587 /sec)
c decisions             : 272094         (0.00 % random) (7005 /sec)
c propagations          : 187636680      (4830715 /sec)
c conflict literals     : 6461706        (55.58 % deleted)
d RESTARTS             381
d FAILURES             139313       
d NODES                272094       
d BACKTRACKS           272094       
d PROPAGATIONS         187636680    
d NOGOODSIZE           46.38 
d MEMORY               133.00 
d TIME                 38.8424 

s UNSATISFIABLE
